p edge 497 467
e 1 2
e 1 3
e 1 4
e 1 5
e 1 6
e 1 7
e 1 8
e 1 9
e 1 10
e 1 11
e 1 12
e 1 13
e 1 14
e 1 15
e 1 16
e 1 17
e 1 18
e 19 20
e 19 21
e 19 22
e 19 23
e 19 24
e 19 25
e 19 26
e 19 27
e 19 28
e 19 29
e 19 30
e 19 31
e 19 32
e 19 33
e 19 34
e 35 36
e 35 37
e 35 38
e 35 39
e 35 40
e 35 41
e 35 42
e 35 43
e 35 44
e 35 45
e 35 46
e 35 47
e 35 48
e 35 49
e 35 50
e 35 51
e 52 53
e 52 54
e 52 55
e 52 56
e 52 57
e 52 58
e 52 59
e 52 60
e 52 61
e 52 62
e 63 64
e 63 65
e 63 66
e 63 67
e 63 68
e 63 69
e 63 70
e 63 71
e 63 72
e 63 73
e 63 74
e 63 75
e 63 76
e 63 77
e 63 78
e 63 79
e 63 80
e 63 81
e 63 82
e 83 84
e 83 85
e 83 86
e 83 87
e 83 88
e 83 89
e 83 90
e 83 91
e 83 92
e 83 93
e 83 94
e 83 95
e 96 97
e 96 98
e 96 99
e 96 100
e 96 101
e 96 102
e 96 103
e 96 104
e 96 105
e 96 106
e 96 107
e 96 108
e 96 109
e 96 110
e 96 111
e 96 112
e 113 114
e 113 115
e 113 116
e 113 117
e 113 118
e 113 119
e 113 120
e 113 121
e 113 122
e 113 123
e 113 124
e 125 126
e 125 127
e 125 128
e 125 129
e 125 130
e 125 131
e 125 132
e 125 133
e 125 134
e 125 135
e 125 136
e 125 137
e 138 139
e 138 140
e 138 141
e 138 142
e 138 143
e 138 144
e 138 145
e 138 146
e 138 147
e 138 148
e 138 149
e 138 150
e 138 151
e 138 152
e 138 153
e 138 154
e 138 155
e 156 157
e 156 158
e 156 159
e 156 160
e 156 161
e 156 162
e 156 163
e 156 164
e 156 165
e 156 166
e 156 167
e 156 168
e 156 169
e 156 170
e 156 171
e 156 172
e 156 173
e 156 174
e 175 176
e 175 177
e 175 178
e 175 179
e 175 180
e 175 181
e 175 182
e 175 183
e 175 184
e 175 185
e 175 186
e 175 187
e 175 188
e 175 189
e 175 190
e 175 191
e 175 192
e 175 193
e 175 194
e 175 195
e 196 197
e 196 198
e 196 199
e 196 200
e 196 201
e 196 202
e 196 203
e 196 204
e 196 205
e 196 206
e 196 207
e 196 208
e 196 209
e 196 210
e 211 212
e 211 213
e 211 214
e 211 215
e 211 216
e 211 217
e 211 218
e 211 219
e 211 220
e 211 221
e 211 222
e 211 223
e 211 224
e 211 225
e 226 227
e 226 228
e 226 229
e 226 230
e 226 231
e 226 232
e 226 233
e 226 234
e 226 235
e 226 236
e 226 237
e 226 238
e 239 240
e 239 241
e 239 242
e 239 243
e 239 244
e 239 245
e 239 246
e 239 247
e 239 248
e 239 249
e 239 250
e 239 251
e 239 252
e 239 253
e 239 254
e 255 256
e 255 257
e 255 258
e 255 259
e 255 260
e 255 261
e 255 262
e 255 263
e 255 264
e 255 265
e 255 266
e 255 267
e 255 268
e 255 269
e 255 270
e 255 271
e 255 272
e 273 274
e 273 275
e 273 276
e 273 277
e 273 278
e 273 279
e 273 280
e 273 281
e 273 282
e 273 283
e 273 284
e 273 285
e 273 286
e 273 287
e 273 288
e 273 289
e 273 290
e 291 292
e 291 293
e 291 294
e 291 295
e 291 296
e 291 297
e 291 298
e 291 299
e 291 300
e 291 301
e 291 302
e 291 303
e 291 304
e 291 305
e 291 306
e 291 307
e 291 308
e 291 309
e 291 310
e 291 311
e 312 313
e 312 314
e 312 315
e 312 316
e 312 317
e 312 318
e 312 319
e 312 320
e 312 321
e 312 322
e 323 324
e 323 325
e 323 326
e 323 327
e 323 328
e 323 329
e 323 330
e 323 331
e 323 332
e 323 333
e 323 334
e 323 335
e 323 336
e 323 337
e 323 338
e 339 340
e 339 341
e 339 342
e 339 343
e 339 344
e 339 345
e 339 346
e 339 347
e 339 348
e 339 349
e 339 350
e 339 351
e 339 352
e 339 353
e 339 354
e 339 355
e 339 356
e 339 357
e 339 358
e 339 359
e 360 361
e 360 362
e 360 363
e 360 364
e 360 365
e 360 366
e 360 367
e 360 368
e 360 369
e 360 370
e 360 371
e 360 372
e 360 373
e 360 374
e 360 375
e 360 376
e 360 377
e 360 378
e 379 380
e 379 381
e 379 382
e 379 383
e 379 384
e 379 385
e 379 386
e 379 387
e 379 388
e 379 389
e 379 390
e 379 391
e 379 392
e 379 393
e 379 394
e 379 395
e 379 396
e 379 397
e 398 399
e 398 400
e 398 401
e 398 402
e 398 403
e 398 404
e 398 405
e 398 406
e 398 407
e 398 408
e 398 409
e 398 410
e 398 411
e 398 412
e 398 413
e 398 414
e 398 415
e 398 416
e 398 417
e 398 418
e 419 420
e 419 421
e 419 422
e 419 423
e 419 424
e 419 425
e 419 426
e 419 427
e 419 428
e 419 429
e 419 430
e 419 431
e 419 432
e 419 433
e 419 434
e 435 436
e 435 437
e 435 438
e 435 439
e 435 440
e 435 441
e 435 442
e 435 443
e 435 444
e 435 445
e 435 446
e 435 447
e 435 448
e 435 449
e 450 451
e 450 452
e 450 453
e 450 454
e 450 455
e 450 456
e 450 457
e 450 458
e 450 459
e 450 460
e 450 461
e 450 462
e 450 463
e 450 464
e 465 466
e 465 467
e 465 468
e 465 469
e 465 470
e 465 471
e 465 472
e 465 473
e 465 474
e 465 475
e 465 476
e 465 477
e 478 479
e 478 480
e 478 481
e 478 482
e 478 483
e 478 484
e 478 485
e 478 486
e 478 487
e 478 488
e 478 489
e 478 490
e 478 491
e 478 492
e 478 493
e 478 494
e 478 495
e 478 496
e 478 497
